32      4       
17      12      11      12      
0       0       0       0       0       8       2       3       4       5       6       7       12      22      
6       3       5       0       0       6       21      18      15      14      13      9       
6       0       0       1       1       5       21      16      14      11      9       
5       9       4       0       0       3       14      10      9       
3       1       0       1       0       4       26      21      14      11      
9       5       6       0       0       2       9       8       
7       7       0       0       1       3       19      18      11      
3       0       0       1       1       6       26      25      23      21      20      19      
6       1       0       4       0       5       26      25      23      19      17      
7       0       1       0       4       5       31      23      21      17      15      
8       13      0       1       0       4       31      23      17      15      
7       4       0       3       0       2       26      14      
1       1       0       4       0       5       31      30      26      23      20      
6       0       0       1       1       2       20      19      
4       0       0       5       2       5       30      29      28      25      24      
6       1       2       0       0       3       29      26      20      
6       0       1       0       2       2       29      20      
5       0       1       0       1       2       29      20      
4       0       1       1       0       3       31      30      29      
8       1       0       0       9       2       28      24      
5       0       6       0       8       2       30      24      
7       6       1       0       0       2       31      24      
5       0       3       4       0       2       28      27      
3       3       0       0       4       1       27      
10      0       0       4       1       1       27      
4       0       1       0       1       1       28      
10      2       0       7       0       1       32      
3       7       2       0       0       1       32      
9       0       0       3       3       1       32      
7       0       6       1       0       1       32      
8       0       5       0       6       1       32      
0       0       0       0       0       0       
